c "random instance"
p edges 150 4520
e 1 4
e 1 8
e 1 15
e 1 20
e 1 29
e 1 33
e 1 37
e 1 38
e 1 39
e 1 42
e 1 44
e 1 46
e 1 47
e 1 48
e 1 54
e 1 55
e 1 56
e 1 57
e 1 58
e 1 60
e 1 62
e 1 63
e 1 66
e 1 74
e 1 79
e 1 87
e 1 92
e 1 93
e 1 95
e 1 96
e 1 97
e 1 98
e 1 101
e 1 103
e 1 104
e 1 106
e 1 108
e 1 109
e 1 111
e 1 114
e 1 115
e 1 119
e 1 121
e 1 122
e 1 128
e 1 134
e 1 135
e 1 138
e 1 141
e 1 143
e 1 147
e 1 150
e 2 3
e 2 4
e 2 7
e 2 13
e 2 16
e 2 17
e 2 18
e 2 19
e 2 20
e 2 23
e 2 24
e 2 26
e 2 27
e 2 28
e 2 29
e 2 33
e 2 36
e 2 38
e 2 39
e 2 41
e 2 42
e 2 45
e 2 48
e 2 52
e 2 53
e 2 58
e 2 60
e 2 63
e 2 66
e 2 72
e 2 75
e 2 79
e 2 81
e 2 84
e 2 87
e 2 92
e 2 96
e 2 97
e 2 100
e 2 103
e 2 110
e 2 112
e 2 124
e 2 125
e 2 126
e 2 128
e 2 129
e 2 131
e 2 134
e 2 139
e 2 144
e 3 5
e 3 6
e 3 8
e 3 13
e 3 14
e 3 16
e 3 17
e 3 18
e 3 19
e 3 22
e 3 25
e 3 30
e 3 31
e 3 32
e 3 37
e 3 38
e 3 41
e 3 45
e 3 46
e 3 47
e 3 50
e 3 58
e 3 62
e 3 63
e 3 64
e 3 67
e 3 68
e 3 71
e 3 76
e 3 79
e 3 81
e 3 82
e 3 88
e 3 94
e 3 96
e 3 98
e 3 102
e 3 106
e 3 108
e 3 109
e 3 117
e 3 121
e 3 122
e 3 123
e 3 127
e 3 131
e 3 136
e 3 138
e 3 139
e 3 140
e 3 143
e 3 144
e 3 145
e 4 12
e 4 16
e 4 17
e 4 19
e 4 20
e 4 27
e 4 28
e 4 31
e 4 32
e 4 33
e 4 39
e 4 42
e 4 46
e 4 50
e 4 54
e 4 55
e 4 56
e 4 57
e 4 58
e 4 59
e 4 61
e 4 62
e 4 64
e 4 67
e 4 71
e 4 72
e 4 75
e 4 77
e 4 84
e 4 87
e 4 89
e 4 92
e 4 94
e 4 105
e 4 111
e 4 112
e 4 114
e 4 115
e 4 121
e 4 123
e 4 125
e 4 126
e 4 127
e 4 128
e 4 131
e 4 132
e 4 138
e 4 144
e 4 145
e 4 147
e 4 148
e 4 150
e 5 8
e 5 12
e 5 14
e 5 15
e 5 16
e 5 17
e 5 20
e 5 22
e 5 24
e 5 25
e 5 27
e 5 28
e 5 30
e 5 31
e 5 32
e 5 33
e 5 36
e 5 38
e 5 41
e 5 43
e 5 44
e 5 45
e 5 46
e 5 49
e 5 50
e 5 54
e 5 57
e 5 58
e 5 62
e 5 65
e 5 66
e 5 68
e 5 74
e 5 78
e 5 80
e 5 81
e 5 83
e 5 88
e 5 90
e 5 92
e 5 94
e 5 95
e 5 97
e 5 98
e 5 100
e 5 101
e 5 112
e 5 113
e 5 114
e 5 115
e 5 116
e 5 118
e 5 119
e 5 120
e 5 121
e 5 124
e 5 125
e 5 126
e 5 134
e 5 139
e 5 140
e 5 141
e 5 142
e 5 147
e 5 148
e 5 150
e 6 8
e 6 10
e 6 11
e 6 12
e 6 14
e 6 16
e 6 18
e 6 19
e 6 21
e 6 23
e 6 28
e 6 31
e 6 33
e 6 39
e 6 41
e 6 43
e 6 44
e 6 46
e 6 47
e 6 49
e 6 52
e 6 55
e 6 61
e 6 62
e 6 64
e 6 66
e 6 68
e 6 71
e 6 72
e 6 73
e 6 76
e 6 77
e 6 78
e 6 81
e 6 83
e 6 84
e 6 87
e 6 94
e 6 97
e 6 98
e 6 103
e 6 108
e 6 111
e 6 112
e 6 115
e 6 116
e 6 118
e 6 122
e 6 124
e 6 127
e 6 129
e 6 131
e 6 132
e 6 136
e 6 142
e 6 143
e 6 145
e 6 146
e 6 149
e 6 150
e 7 8
e 7 9
e 7 12
e 7 13
e 7 15
e 7 17
e 7 18
e 7 24
e 7 28
e 7 32
e 7 33
e 7 35
e 7 36
e 7 37
e 7 40
e 7 41
e 7 45
e 7 46
e 7 50
e 7 51
e 7 57
e 7 58
e 7 61
e 7 62
e 7 65
e 7 67
e 7 69
e 7 70
e 7 71
e 7 72
e 7 78
e 7 79
e 7 80
e 7 81
e 7 82
e 7 84
e 7 87
e 7 89
e 7 92
e 7 95
e 7 96
e 7 98
e 7 99
e 7 100
e 7 101
e 7 104
e 7 106
e 7 107
e 7 108
e 7 109
e 7 114
e 7 120
e 7 128
e 7 132
e 7 133
e 7 135
e 7 140
e 7 141
e 7 143
e 7 144
e 7 146
e 7 149
e 8 9
e 8 11
e 8 13
e 8 14
e 8 16
e 8 17
e 8 18
e 8 21
e 8 27
e 8 28
e 8 29
e 8 32
e 8 33
e 8 34
e 8 35
e 8 37
e 8 39
e 8 42
e 8 43
e 8 44
e 8 48
e 8 59
e 8 63
e 8 64
e 8 68
e 8 69
e 8 70
e 8 72
e 8 74
e 8 76
e 8 77
e 8 78
e 8 79
e 8 81
e 8 82
e 8 87
e 8 90
e 8 95
e 8 101
e 8 107
e 8 109
e 8 111
e 8 120
e 8 121
e 8 123
e 8 124
e 8 126
e 8 129
e 8 130
e 8 136
e 8 139
e 8 141
e 8 143
e 8 144
e 8 148
e 8 149
e 8 150
e 9 12
e 9 13
e 9 22
e 9 24
e 9 26
e 9 29
e 9 34
e 9 37
e 9 41
e 9 42
e 9 48
e 9 50
e 9 52
e 9 54
e 9 56
e 9 61
e 9 62
e 9 64
e 9 66
e 9 68
e 9 72
e 9 78
e 9 81
e 9 82
e 9 86
e 9 87
e 9 89
e 9 93
e 9 97
e 9 99
e 9 100
e 9 101
e 9 103
e 9 106
e 9 107
e 9 108
e 9 109
e 9 110
e 9 113
e 9 114
e 9 116
e 9 118
e 9 120
e 9 122
e 9 125
e 9 126
e 9 130
e 9 131
e 9 132
e 9 139
e 9 141
e 9 142
e 9 147
e 9 148
e 9 150
e 10 11
e 10 12
e 10 14
e 10 17
e 10 18
e 10 20
e 10 22
e 10 23
e 10 30
e 10 32
e 10 33
e 10 41
e 10 42
e 10 47
e 10 50
e 10 51
e 10 54
e 10 58
e 10 60
e 10 62
e 10 63
e 10 64
e 10 65
e 10 66
e 10 67
e 10 68
e 10 69
e 10 74
e 10 78
e 10 84
e 10 85
e 10 86
e 10 88
e 10 90
e 10 92
e 10 93
e 10 97
e 10 98
e 10 100
e 10 101
e 10 105
e 10 109
e 10 114
e 10 116
e 10 122
e 10 127
e 10 132
e 10 137
e 10 138
e 10 139
e 10 142
e 10 147
e 10 148
e 10 149
e 11 13
e 11 14
e 11 15
e 11 18
e 11 21
e 11 28
e 11 31
e 11 33
e 11 35
e 11 36
e 11 39
e 11 44
e 11 45
e 11 46
e 11 47
e 11 50
e 11 54
e 11 58
e 11 61
e 11 66
e 11 67
e 11 68
e 11 69
e 11 71
e 11 72
e 11 73
e 11 80
e 11 85
e 11 90
e 11 94
e 11 95
e 11 96
e 11 98
e 11 99
e 11 100
e 11 102
e 11 104
e 11 108
e 11 113
e 11 114
e 11 115
e 11 118
e 11 119
e 11 120
e 11 122
e 11 124
e 11 125
e 11 126
e 11 127
e 11 128
e 11 129
e 11 130
e 11 136
e 11 140
e 11 141
e 11 143
e 11 148
e 11 150
e 12 14
e 12 16
e 12 18
e 12 19
e 12 22
e 12 23
e 12 27
e 12 28
e 12 29
e 12 33
e 12 34
e 12 35
e 12 38
e 12 41
e 12 46
e 12 47
e 12 48
e 12 49
e 12 54
e 12 56
e 12 57
e 12 59
e 12 60
e 12 61
e 12 62
e 12 63
e 12 66
e 12 69
e 12 71
e 12 74
e 12 75
e 12 77
e 12 83
e 12 90
e 12 96
e 12 99
e 12 101
e 12 102
e 12 106
e 12 107
e 12 109
e 12 111
e 12 112
e 12 113
e 12 114
e 12 117
e 12 118
e 12 119
e 12 120
e 12 121
e 12 124
e 12 125
e 12 128
e 12 129
e 12 132
e 12 133
e 12 141
e 12 146
e 12 150
e 13 16
e 13 17
e 13 18
e 13 21
e 13 27
e 13 31
e 13 33
e 13 34
e 13 35
e 13 41
e 13 49
e 13 50
e 13 57
e 13 58
e 13 64
e 13 65
e 13 66
e 13 68
e 13 69
e 13 70
e 13 73
e 13 75
e 13 78
e 13 80
e 13 82
e 13 83
e 13 84
e 13 87
e 13 90
e 13 93
e 13 97
e 13 100
e 13 103
e 13 104
e 13 105
e 13 111
e 13 113
e 13 115
e 13 116
e 13 117
e 13 118
e 13 121
e 13 123
e 13 129
e 13 131
e 13 133
e 13 136
e 13 137
e 13 138
e 13 139
e 13 140
e 13 141
e 13 142
e 13 143
e 13 146
e 13 148
e 13 150
e 14 15
e 14 17
e 14 18
e 14 20
e 14 21
e 14 23
e 14 24
e 14 25
e 14 30
e 14 31
e 14 33
e 14 35
e 14 37
e 14 41
e 14 42
e 14 45
e 14 50
e 14 51
e 14 53
e 14 58
e 14 59
e 14 60
e 14 64
e 14 65
e 14 66
e 14 67
e 14 69
e 14 70
e 14 73
e 14 77
e 14 78
e 14 84
e 14 85
e 14 92
e 14 96
e 14 97
e 14 100
e 14 103
e 14 114
e 14 115
e 14 116
e 14 120
e 14 123
e 14 126
e 14 127
e 14 130
e 14 131
e 14 134
e 14 136
e 14 144
e 14 145
e 14 147
e 14 148
e 14 149
e 14 150
e 15 17
e 15 18
e 15 19
e 15 24
e 15 25
e 15 31
e 15 32
e 15 34
e 15 36
e 15 40
e 15 45
e 15 46
e 15 48
e 15 53
e 15 56
e 15 57
e 15 59
e 15 60
e 15 61
e 15 63
e 15 64
e 15 65
e 15 66
e 15 67
e 15 68
e 15 69
e 15 77
e 15 78
e 15 80
e 15 82
e 15 87
e 15 88
e 15 89
e 15 93
e 15 96
e 15 98
e 15 101
e 15 102
e 15 103
e 15 106
e 15 107
e 15 108
e 15 111
e 15 113
e 15 118
e 15 119
e 15 120
e 15 123
e 15 125
e 15 129
e 15 130
e 15 131
e 15 134
e 15 137
e 15 139
e 15 140
e 15 142
e 15 146
e 15 148
e 15 150
e 16 17
e 16 22
e 16 23
e 16 34
e 16 39
e 16 40
e 16 44
e 16 49
e 16 53
e 16 54
e 16 58
e 16 60
e 16 64
e 16 66
e 16 67
e 16 68
e 16 69
e 16 73
e 16 74
e 16 75
e 16 77
e 16 79
e 16 81
e 16 83
e 16 89
e 16 92
e 16 97
e 16 98
e 16 102
e 16 104
e 16 109
e 16 110
e 16 111
e 16 112
e 16 115
e 16 116
e 16 117
e 16 122
e 16 123
e 16 125
e 16 126
e 16 131
e 16 133
e 16 135
e 16 136
e 16 139
e 16 140
e 16 143
e 16 145
e 16 146
e 16 148
e 16 149
e 17 18
e 17 20
e 17 23
e 17 24
e 17 25
e 17 30
e 17 31
e 17 34
e 17 36
e 17 37
e 17 39
e 17 42
e 17 47
e 17 52
e 17 54
e 17 56
e 17 57
e 17 60
e 17 61
e 17 64
e 17 65
e 17 68
e 17 69
e 17 71
e 17 72
e 17 77
e 17 78
e 17 79
e 17 80
e 17 81
e 17 87
e 17 89
e 17 91
e 17 97
e 17 100
e 17 102
e 17 105
e 17 107
e 17 111
e 17 112
e 17 114
e 17 118
e 17 119
e 17 120
e 17 125
e 17 134
e 17 136
e 17 138
e 17 141
e 17 142
e 17 148
e 17 150
e 18 19
e 18 21
e 18 23
e 18 25
e 18 26
e 18 27
e 18 28
e 18 31
e 18 34
e 18 44
e 18 45
e 18 46
e 18 49
e 18 50
e 18 52
e 18 53
e 18 54
e 18 55
e 18 59
e 18 64
e 18 68
e 18 69
e 18 71
e 18 72
e 18 74
e 18 76
e 18 77
e 18 78
e 18 82
e 18 83
e 18 88
e 18 93
e 18 99
e 18 101
e 18 110
e 18 112
e 18 113
e 18 114
e 18 116
e 18 117
e 18 118
e 18 119
e 18 124
e 18 125
e 18 129
e 18 130
e 18 132
e 18 135
e 18 136
e 18 137
e 18 138
e 18 140
e 18 141
e 18 149
e 19 20
e 19 28
e 19 30
e 19 31
e 19 33
e 19 35
e 19 37
e 19 38
e 19 39
e 19 45
e 19 46
e 19 48
e 19 49
e 19 53
e 19 54
e 19 55
e 19 56
e 19 57
e 19 59
e 19 60
e 19 62
e 19 66
e 19 71
e 19 72
e 19 73
e 19 75
e 19 83
e 19 84
e 19 85
e 19 87
e 19 88
e 19 89
e 19 93
e 19 97
e 19 100
e 19 102
e 19 103
e 19 104
e 19 110
e 19 111
e 19 112
e 19 113
e 19 114
e 19 118
e 19 120
e 19 123
e 19 130
e 19 131
e 19 132
e 19 134
e 19 137
e 19 138
e 19 139
e 19 140
e 19 141
e 19 143
e 19 146
e 19 147
e 19 149
e 20 22
e 20 30
e 20 31
e 20 35
e 20 37
e 20 38
e 20 39
e 20 42
e 20 43
e 20 45
e 20 46
e 20 47
e 20 48
e 20 50
e 20 53
e 20 54
e 20 58
e 20 61
e 20 62
e 20 64
e 20 69
e 20 70
e 20 73
e 20 74
e 20 78
e 20 84
e 20 85
e 20 86
e 20 88
e 20 89
e 20 93
e 20 99
e 20 100
e 20 108
e 20 109
e 20 110
e 20 112
e 20 116
e 20 121
e 20 123
e 20 127
e 20 128
e 20 131
e 20 132
e 20 133
e 20 135
e 20 139
e 20 141
e 20 142
e 20 143
e 20 146
e 20 147
e 20 150
e 21 22
e 21 23
e 21 24
e 21 32
e 21 34
e 21 35
e 21 37
e 21 38
e 21 42
e 21 49
e 21 50
e 21 55
e 21 58
e 21 59
e 21 61
e 21 62
e 21 65
e 21 69
e 21 70
e 21 71
e 21 76
e 21 77
e 21 86
e 21 90
e 21 92
e 21 99
e 21 100
e 21 102
e 21 106
e 21 107
e 21 109
e 21 112
e 21 121
e 21 124
e 21 126
e 21 129
e 21 130
e 21 131
e 21 134
e 21 138
e 21 139
e 21 149
e 22 25
e 22 27
e 22 28
e 22 29
e 22 33
e 22 35
e 22 40
e 22 42
e 22 45
e 22 48
e 22 50
e 22 51
e 22 53
e 22 55
e 22 58
e 22 59
e 22 60
e 22 70
e 22 71
e 22 72
e 22 74
e 22 76
e 22 78
e 22 79
e 22 80
e 22 81
e 22 82
e 22 83
e 22 89
e 22 90
e 22 95
e 22 96
e 22 99
e 22 101
e 22 103
e 22 105
e 22 107
e 22 109
e 22 110
e 22 113
e 22 116
e 22 118
e 22 119
e 22 120
e 22 122
e 22 129
e 22 132
e 22 134
e 22 136
e 22 137
e 22 138
e 22 139
e 22 143
e 22 145
e 22 146
e 22 149
e 22 150
e 23 29
e 23 32
e 23 34
e 23 35
e 23 38
e 23 39
e 23 41
e 23 43
e 23 44
e 23 46
e 23 47
e 23 49
e 23 51
e 23 52
e 23 54
e 23 57
e 23 60
e 23 61
e 23 62
e 23 63
e 23 69
e 23 70
e 23 72
e 23 75
e 23 77
e 23 78
e 23 79
e 23 81
e 23 83
e 23 84
e 23 87
e 23 88
e 23 91
e 23 95
e 23 97
e 23 98
e 23 99
e 23 101
e 23 106
e 23 107
e 23 108
e 23 109
e 23 114
e 23 115
e 23 116
e 23 120
e 23 125
e 23 127
e 23 135
e 23 137
e 23 148
e 24 25
e 24 26
e 24 27
e 24 31
e 24 32
e 24 36
e 24 39
e 24 41
e 24 43
e 24 44
e 24 45
e 24 48
e 24 49
e 24 53
e 24 58
e 24 60
e 24 62
e 24 65
e 24 67
e 24 68
e 24 70
e 24 72
e 24 74
e 24 75
e 24 79
e 24 81
e 24 82
e 24 86
e 24 91
e 24 94
e 24 98
e 24 99
e 24 100
e 24 101
e 24 102
e 24 107
e 24 108
e 24 109
e 24 110
e 24 113
e 24 114
e 24 115
e 24 119
e 24 120
e 24 126
e 24 136
e 24 137
e 24 143
e 24 147
e 24 150
e 25 28
e 25 33
e 25 37
e 25 41
e 25 43
e 25 44
e 25 49
e 25 54
e 25 57
e 25 59
e 25 61
e 25 64
e 25 69
e 25 71
e 25 72
e 25 74
e 25 75
e 25 77
e 25 79
e 25 80
e 25 88
e 25 90
e 25 91
e 25 92
e 25 93
e 25 97
e 25 99
e 25 102
e 25 104
e 25 105
e 25 106
e 25 109
e 25 113
e 25 118
e 25 122
e 25 124
e 25 126
e 25 128
e 25 130
e 25 131
e 25 132
e 25 133
e 25 134
e 25 138
e 25 147
e 25 148
e 25 149
e 25 150
e 26 28
e 26 29
e 26 31
e 26 32
e 26 35
e 26 37
e 26 43
e 26 45
e 26 47
e 26 56
e 26 58
e 26 62
e 26 66
e 26 67
e 26 70
e 26 71
e 26 73
e 26 74
e 26 75
e 26 82
e 26 83
e 26 85
e 26 88
e 26 89
e 26 90
e 26 94
e 26 96
e 26 97
e 26 99
e 26 100
e 26 103
e 26 110
e 26 111
e 26 117
e 26 125
e 26 127
e 26 130
e 26 132
e 26 135
e 26 138
e 26 139
e 26 141
e 26 143
e 26 148
e 26 150
e 27 32
e 27 33
e 27 36
e 27 38
e 27 39
e 27 44
e 27 48
e 27 50
e 27 52
e 27 54
e 27 56
e 27 58
e 27 60
e 27 61
e 27 62
e 27 64
e 27 65
e 27 66
e 27 68
e 27 71
e 27 72
e 27 73
e 27 77
e 27 85
e 27 86
e 27 87
e 27 88
e 27 92
e 27 95
e 27 99
e 27 100
e 27 101
e 27 102
e 27 104
e 27 105
e 27 109
e 27 110
e 27 112
e 27 113
e 27 114
e 27 115
e 27 120
e 27 123
e 27 127
e 27 129
e 27 137
e 27 138
e 27 143
e 27 144
e 27 145
e 27 146
e 27 149
e 27 150
e 28 29
e 28 30
e 28 32
e 28 35
e 28 39
e 28 40
e 28 43
e 28 44
e 28 47
e 28 50
e 28 52
e 28 53
e 28 57
e 28 59
e 28 62
e 28 64
e 28 68
e 28 70
e 28 71
e 28 73
e 28 78
e 28 80
e 28 81
e 28 82
e 28 87
e 28 88
e 28 91
e 28 92
e 28 95
e 28 96
e 28 103
e 28 104
e 28 111
e 28 112
e 28 115
e 28 116
e 28 117
e 28 119
e 28 121
e 28 123
e 28 128
e 28 130
e 28 132
e 28 134
e 28 138
e 28 144
e 28 147
e 28 149
e 29 32
e 29 36
e 29 37
e 29 44
e 29 47
e 29 49
e 29 53
e 29 57
e 29 59
e 29 61
e 29 64
e 29 72
e 29 73
e 29 77
e 29 79
e 29 80
e 29 84
e 29 85
e 29 87
e 29 88
e 29 92
e 29 95
e 29 96
e 29 97
e 29 104
e 29 105
e 29 106
e 29 107
e 29 108
e 29 113
e 29 114
e 29 115
e 29 117
e 29 121
e 29 123
e 29 125
e 29 126
e 29 131
e 29 133
e 29 136
e 29 138
e 29 140
e 29 142
e 29 143
e 29 145
e 29 147
e 29 150
e 30 31
e 30 32
e 30 35
e 30 36
e 30 40
e 30 42
e 30 45
e 30 46
e 30 52
e 30 53
e 30 58
e 30 60
e 30 62
e 30 63
e 30 67
e 30 68
e 30 69
e 30 70
e 30 73
e 30 74
e 30 76
e 30 78
e 30 79
e 30 81
e 30 84
e 30 85
e 30 86
e 30 87
e 30 90
e 30 91
e 30 92
e 30 96
e 30 97
e 30 98
e 30 102
e 30 104
e 30 105
e 30 107
e 30 108
e 30 109
e 30 111
e 30 114
e 30 116
e 30 127
e 30 130
e 30 131
e 30 133
e 30 134
e 30 135
e 30 140
e 30 141
e 30 142
e 30 143
e 30 145
e 30 146
e 30 148
e 30 150
e 31 33
e 31 34
e 31 41
e 31 42
e 31 43
e 31 44
e 31 47
e 31 50
e 31 52
e 31 55
e 31 56
e 31 58
e 31 60
e 31 65
e 31 66
e 31 70
e 31 73
e 31 75
e 31 77
e 31 80
e 31 83
e 31 85
e 31 90
e 31 92
e 31 94
e 31 95
e 31 96
e 31 98
e 31 99
e 31 100
e 31 103
e 31 105
e 31 106
e 31 108
e 31 109
e 31 111
e 31 112
e 31 113
e 31 115
e 31 116
e 31 119
e 31 124
e 31 129
e 31 130
e 31 132
e 31 134
e 31 135
e 31 136
e 31 140
e 31 142
e 31 143
e 31 144
e 31 145
e 32 36
e 32 43
e 32 55
e 32 56
e 32 57
e 32 58
e 32 60
e 32 65
e 32 67
e 32 68
e 32 69
e 32 70
e 32 73
e 32 77
e 32 78
e 32 79
e 32 83
e 32 84
e 32 87
e 32 88
e 32 92
e 32 95
e 32 97
e 32 98
e 32 99
e 32 100
e 32 109
e 32 112
e 32 115
e 32 119
e 32 122
e 32 123
e 32 124
e 32 127
e 32 129
e 32 130
e 32 135
e 32 136
e 32 137
e 32 140
e 32 141
e 32 144
e 32 148
e 32 149
e 33 37
e 33 39
e 33 43
e 33 44
e 33 48
e 33 50
e 33 51
e 33 52
e 33 59
e 33 65
e 33 70
e 33 71
e 33 76
e 33 82
e 33 83
e 33 85
e 33 86
e 33 89
e 33 91
e 33 92
e 33 93
e 33 96
e 33 98
e 33 102
e 33 109
e 33 112
e 33 113
e 33 114
e 33 116
e 33 121
e 33 122
e 33 124
e 33 125
e 33 127
e 33 130
e 33 131
e 33 137
e 33 143
e 33 144
e 33 145
e 33 147
e 33 149
e 33 150
e 34 37
e 34 44
e 34 48
e 34 51
e 34 52
e 34 54
e 34 56
e 34 57
e 34 60
e 34 62
e 34 63
e 34 65
e 34 66
e 34 68
e 34 69
e 34 70
e 34 73
e 34 74
e 34 75
e 34 78
e 34 79
e 34 81
e 34 87
e 34 92
e 34 93
e 34 96
e 34 97
e 34 99
e 34 101
e 34 102
e 34 103
e 34 105
e 34 106
e 34 107
e 34 109
e 34 110
e 34 112
e 34 114
e 34 117
e 34 118
e 34 121
e 34 127
e 34 128
e 34 133
e 34 134
e 34 139
e 34 141
e 34 143
e 34 144
e 34 148
e 34 149
e 35 38
e 35 40
e 35 42
e 35 48
e 35 49
e 35 52
e 35 59
e 35 63
e 35 64
e 35 66
e 35 70
e 35 71
e 35 74
e 35 76
e 35 82
e 35 85
e 35 88
e 35 90
e 35 94
e 35 106
e 35 111
e 35 112
e 35 114
e 35 116
e 35 117
e 35 118
e 35 120
e 35 122
e 35 125
e 35 127
e 35 129
e 35 130
e 35 132
e 35 135
e 35 137
e 35 140
e 35 144
e 35 145
e 35 147
e 36 41
e 36 43
e 36 44
e 36 52
e 36 54
e 36 55
e 36 57
e 36 59
e 36 61
e 36 64
e 36 65
e 36 72
e 36 75
e 36 79
e 36 81
e 36 86
e 36 88
e 36 91
e 36 93
e 36 94
e 36 97
e 36 98
e 36 99
e 36 101
e 36 109
e 36 110
e 36 111
e 36 112
e 36 114
e 36 115
e 36 116
e 36 118
e 36 119
e 36 122
e 36 124
e 36 130
e 36 136
e 36 139
e 36 141
e 36 142
e 36 145
e 36 148
e 37 41
e 37 45
e 37 46
e 37 47
e 37 54
e 37 56
e 37 57
e 37 58
e 37 60
e 37 72
e 37 74
e 37 75
e 37 79
e 37 80
e 37 83
e 37 84
e 37 85
e 37 89
e 37 91
e 37 93
e 37 96
e 37 98
e 37 100
e 37 103
e 37 104
e 37 105
e 37 106
e 37 111
e 37 114
e 37 116
e 37 117
e 37 121
e 37 123
e 37 125
e 37 126
e 37 132
e 37 135
e 37 142
e 37 143
e 37 145
e 38 39
e 38 40
e 38 41
e 38 47
e 38 51
e 38 52
e 38 54
e 38 55
e 38 56
e 38 59
e 38 60
e 38 61
e 38 62
e 38 63
e 38 65
e 38 73
e 38 74
e 38 78
e 38 79
e 38 80
e 38 81
e 38 83
e 38 84
e 38 87
e 38 88
e 38 90
e 38 91
e 38 92
e 38 93
e 38 101
e 38 102
e 38 103
e 38 106
e 38 108
e 38 109
e 38 110
e 38 111
e 38 112
e 38 115
e 38 116
e 38 117
e 38 118
e 38 120
e 38 121
e 38 122
e 38 127
e 38 131
e 38 132
e 38 133
e 38 134
e 38 135
e 38 136
e 38 139
e 38 140
e 38 144
e 38 146
e 38 147
e 38 148
e 38 149
e 39 45
e 39 46
e 39 47
e 39 53
e 39 56
e 39 58
e 39 60
e 39 63
e 39 68
e 39 76
e 39 77
e 39 83
e 39 85
e 39 87
e 39 90
e 39 93
e 39 94
e 39 96
e 39 97
e 39 101
e 39 103
e 39 104
e 39 105
e 39 106
e 39 107
e 39 108
e 39 110
e 39 114
e 39 116
e 39 117
e 39 118
e 39 121
e 39 123
e 39 128
e 39 135
e 39 137
e 39 141
e 39 145
e 39 146
e 39 147
e 39 148
e 39 149
e 40 46
e 40 47
e 40 48
e 40 51
e 40 52
e 40 55
e 40 57
e 40 62
e 40 63
e 40 67
e 40 69
e 40 71
e 40 72
e 40 75
e 40 79
e 40 81
e 40 85
e 40 88
e 40 89
e 40 93
e 40 94
e 40 97
e 40 98
e 40 99
e 40 100
e 40 103
e 40 105
e 40 109
e 40 114
e 40 115
e 40 118
e 40 119
e 40 121
e 40 123
e 40 127
e 40 128
e 40 133
e 40 134
e 40 135
e 40 136
e 40 138
e 40 140
e 40 147
e 40 148
e 41 48
e 41 53
e 41 54
e 41 56
e 41 57
e 41 59
e 41 60
e 41 63
e 41 65
e 41 66
e 41 69
e 41 70
e 41 74
e 41 76
e 41 82
e 41 83
e 41 90
e 41 96
e 41 100
e 41 101
e 41 102
e 41 104
e 41 107
e 41 108
e 41 111
e 41 112
e 41 114
e 41 115
e 41 120
e 41 124
e 41 127
e 41 128
e 41 135
e 41 136
e 41 140
e 41 142
e 41 144
e 41 147
e 41 150
e 42 44
e 42 46
e 42 54
e 42 56
e 42 57
e 42 58
e 42 60
e 42 61
e 42 64
e 42 66
e 42 70
e 42 71
e 42 72
e 42 73
e 42 75
e 42 77
e 42 79
e 42 81
e 42 84
e 42 85
e 42 92
e 42 93
e 42 96
e 42 100
e 42 104
e 42 114
e 42 115
e 42 125
e 42 127
e 42 129
e 42 131
e 42 134
e 42 137
e 42 139
e 42 140
e 42 145
e 42 146
e 43 44
e 43 47
e 43 55
e 43 56
e 43 58
e 43 59
e 43 60
e 43 61
e 43 62
e 43 65
e 43 66
e 43 67
e 43 69
e 43 70
e 43 72
e 43 77
e 43 79
e 43 82
e 43 87
e 43 98
e 43 102
e 43 108
e 43 109
e 43 110
e 43 114
e 43 117
e 43 118
e 43 119
e 43 120
e 43 121
e 43 123
e 43 125
e 43 126
e 43 133
e 43 135
e 43 136
e 43 139
e 43 141
e 43 144
e 43 146
e 43 148
e 44 45
e 44 47
e 44 48
e 44 50
e 44 53
e 44 55
e 44 56
e 44 57
e 44 59
e 44 61
e 44 62
e 44 64
e 44 74
e 44 76
e 44 77
e 44 78
e 44 79
e 44 80
e 44 81
e 44 82
e 44 84
e 44 85
e 44 88
e 44 89
e 44 93
e 44 95
e 44 96
e 44 100
e 44 102
e 44 104
e 44 108
e 44 110
e 44 113
e 44 120
e 44 122
e 44 123
e 44 124
e 44 131
e 44 133
e 44 135
e 44 139
e 44 142
e 44 144
e 44 146
e 44 148
e 44 149
e 45 46
e 45 47
e 45 49
e 45 50
e 45 52
e 45 53
e 45 55
e 45 56
e 45 58
e 45 61
e 45 62
e 45 64
e 45 68
e 45 69
e 45 70
e 45 72
e 45 74
e 45 76
e 45 78
e 45 79
e 45 84
e 45 86
e 45 89
e 45 90
e 45 93
e 45 95
e 45 98
e 45 102
e 45 103
e 45 105
e 45 108
e 45 112
e 45 113
e 45 114
e 45 116
e 45 122
e 45 123
e 45 125
e 45 128
e 45 129
e 45 130
e 45 135
e 45 136
e 45 139
e 45 140
e 45 143
e 46 49
e 46 60
e 46 61
e 46 62
e 46 63
e 46 71
e 46 73
e 46 74
e 46 77
e 46 79
e 46 81
e 46 87
e 46 89
e 46 90
e 46 95
e 46 96
e 46 97
e 46 99
e 46 100
e 46 102
e 46 109
e 46 110
e 46 111
e 46 114
e 46 116
e 46 117
e 46 120
e 46 124
e 46 128
e 46 129
e 46 135
e 46 137
e 46 138
e 46 141
e 46 149
e 47 51
e 47 53
e 47 54
e 47 55
e 47 57
e 47 58
e 47 59
e 47 61
e 47 62
e 47 65
e 47 71
e 47 74
e 47 79
e 47 81
e 47 83
e 47 85
e 47 86
e 47 88
e 47 90
e 47 92
e 47 94
e 47 97
e 47 99
e 47 100
e 47 101
e 47 102
e 47 105
e 47 107
e 47 108
e 47 109
e 47 110
e 47 111
e 47 118
e 47 121
e 47 122
e 47 124
e 47 125
e 47 130
e 47 131
e 47 132
e 47 135
e 47 136
e 47 139
e 47 142
e 47 143
e 47 147
e 47 148
e 48 50
e 48 52
e 48 53
e 48 57
e 48 59
e 48 60
e 48 64
e 48 65
e 48 66
e 48 67
e 48 69
e 48 71
e 48 74
e 48 75
e 48 76
e 48 78
e 48 80
e 48 81
e 48 82
e 48 89
e 48 90
e 48 93
e 48 99
e 48 100
e 48 102
e 48 104
e 48 105
e 48 106
e 48 110
e 48 113
e 48 115
e 48 116
e 48 117
e 48 118
e 48 121
e 48 128
e 48 130
e 48 131
e 48 135
e 48 137
e 48 138
e 48 141
e 48 144
e 48 145
e 48 147
e 49 51
e 49 54
e 49 55
e 49 56
e 49 60
e 49 64
e 49 67
e 49 68
e 49 71
e 49 72
e 49 74
e 49 75
e 49 76
e 49 77
e 49 79
e 49 89
e 49 91
e 49 95
e 49 97
e 49 98
e 49 102
e 49 104
e 49 106
e 49 107
e 49 110
e 49 112
e 49 114
e 49 118
e 49 122
e 49 127
e 49 128
e 49 134
e 49 135
e 49 136
e 49 139
e 49 140
e 49 141
e 49 149
e 49 150
e 50 52
e 50 53
e 50 61
e 50 62
e 50 67
e 50 69
e 50 71
e 50 76
e 50 78
e 50 82
e 50 84
e 50 85
e 50 87
e 50 91
e 50 92
e 50 93
e 50 94
e 50 95
e 50 98
e 50 100
e 50 102
e 50 105
e 50 115
e 50 116
e 50 118
e 50 119
e 50 120
e 50 121
e 50 122
e 50 124
e 50 129
e 50 132
e 50 134
e 50 135
e 50 137
e 50 138
e 50 143
e 50 145
e 51 54
e 51 63
e 51 64
e 51 66
e 51 68
e 51 70
e 51 76
e 51 79
e 51 81
e 51 82
e 51 87
e 51 89
e 51 90
e 51 92
e 51 93
e 51 94
e 51 96
e 51 98
e 51 99
e 51 107
e 51 111
e 51 112
e 51 114
e 51 115
e 51 116
e 51 118
e 51 120
e 51 121
e 51 122
e 51 123
e 51 124
e 51 125
e 51 126
e 51 128
e 51 131
e 51 134
e 51 135
e 51 141
e 51 145
e 51 148
e 52 54
e 52 56
e 52 61
e 52 64
e 52 66
e 52 67
e 52 72
e 52 74
e 52 77
e 52 79
e 52 82
e 52 87
e 52 90
e 52 93
e 52 94
e 52 95
e 52 97
e 52 98
e 52 99
e 52 101
e 52 104
e 52 106
e 52 109
e 52 113
e 52 115
e 52 120
e 52 121
e 52 122
e 52 124
e 52 129
e 52 130
e 52 132
e 52 133
e 52 138
e 52 139
e 52 140
e 52 142
e 52 143
e 52 145
e 52 146
e 52 149
e 53 55
e 53 57
e 53 59
e 53 60
e 53 65
e 53 66
e 53 68
e 53 70
e 53 73
e 53 75
e 53 77
e 53 82
e 53 84
e 53 87
e 53 89
e 53 95
e 53 96
e 53 97
e 53 98
e 53 100
e 53 101
e 53 103
e 53 105
e 53 106
e 53 107
e 53 108
e 53 110
e 53 112
e 53 114
e 53 116
e 53 117
e 53 120
e 53 121
e 53 128
e 53 130
e 53 131
e 53 136
e 53 137
e 53 138
e 53 139
e 53 145
e 53 147
e 54 58
e 54 59
e 54 60
e 54 62
e 54 67
e 54 73
e 54 75
e 54 76
e 54 77
e 54 78
e 54 83
e 54 84
e 54 85
e 54 90
e 54 91
e 54 93
e 54 94
e 54 96
e 54 99
e 54 102
e 54 105
e 54 106
e 54 107
e 54 113
e 54 115
e 54 116
e 54 117
e 54 120
e 54 121
e 54 122
e 54 123
e 54 124
e 54 126
e 54 128
e 54 129
e 54 132
e 54 134
e 54 135
e 54 138
e 54 143
e 54 145
e 54 147
e 55 56
e 55 58
e 55 59
e 55 62
e 55 63
e 55 64
e 55 66
e 55 68
e 55 69
e 55 73
e 55 75
e 55 79
e 55 81
e 55 87
e 55 89
e 55 90
e 55 93
e 55 95
e 55 99
e 55 101
e 55 102
e 55 107
e 55 108
e 55 111
e 55 113
e 55 114
e 55 117
e 55 119
e 55 128
e 55 129
e 55 132
e 55 133
e 55 144
e 55 146
e 55 147
e 55 148
e 55 150
e 56 58
e 56 60
e 56 62
e 56 65
e 56 66
e 56 68
e 56 71
e 56 72
e 56 80
e 56 82
e 56 84
e 56 85
e 56 94
e 56 95
e 56 97
e 56 98
e 56 99
e 56 101
e 56 102
e 56 104
e 56 106
e 56 108
e 56 111
e 56 112
e 56 113
e 56 114
e 56 115
e 56 116
e 56 118
e 56 121
e 56 122
e 56 125
e 56 130
e 56 132
e 56 135
e 56 136
e 56 137
e 56 139
e 56 141
e 56 144
e 56 146
e 56 148
e 56 149
e 56 150
e 57 61
e 57 63
e 57 64
e 57 68
e 57 70
e 57 76
e 57 78
e 57 79
e 57 80
e 57 87
e 57 88
e 57 94
e 57 97
e 57 99
e 57 100
e 57 104
e 57 109
e 57 112
e 57 116
e 57 118
e 57 119
e 57 121
e 57 122
e 57 134
e 57 135
e 57 138
e 57 139
e 57 143
e 57 149
e 58 60
e 58 62
e 58 63
e 58 66
e 58 69
e 58 70
e 58 72
e 58 75
e 58 81
e 58 82
e 58 84
e 58 86
e 58 87
e 58 88
e 58 94
e 58 97
e 58 101
e 58 102
e 58 104
e 58 105
e 58 111
e 58 115
e 58 119
e 58 120
e 58 122
e 58 124
e 58 126
e 58 132
e 58 134
e 58 140
e 58 141
e 58 142
e 58 143
e 58 150
e 59 62
e 59 63
e 59 71
e 59 75
e 59 81
e 59 82
e 59 85
e 59 88
e 59 89
e 59 91
e 59 94
e 59 95
e 59 97
e 59 99
e 59 100
e 59 104
e 59 107
e 59 108
e 59 109
e 59 110
e 59 111
e 59 113
e 59 115
e 59 123
e 59 124
e 59 127
e 59 131
e 59 132
e 59 135
e 59 136
e 59 139
e 59 143
e 59 145
e 59 148
e 59 150
e 60 63
e 60 70
e 60 72
e 60 73
e 60 75
e 60 76
e 60 82
e 60 83
e 60 84
e 60 85
e 60 88
e 60 89
e 60 91
e 60 94
e 60 97
e 60 98
e 60 99
e 60 100
e 60 105
e 60 106
e 60 109
e 60 110
e 60 111
e 60 112
e 60 115
e 60 126
e 60 131
e 60 132
e 60 136
e 60 142
e 60 143
e 60 148
e 60 150
e 61 62
e 61 68
e 61 69
e 61 73
e 61 74
e 61 76
e 61 77
e 61 81
e 61 84
e 61 86
e 61 87
e 61 92
e 61 94
e 61 99
e 61 102
e 61 108
e 61 109
e 61 113
e 61 114
e 61 116
e 61 117
e 61 119
e 61 122
e 61 128
e 61 131
e 61 132
e 61 136
e 61 137
e 61 138
e 61 139
e 61 144
e 61 145
e 61 148
e 62 63
e 62 66
e 62 68
e 62 69
e 62 71
e 62 75
e 62 78
e 62 79
e 62 86
e 62 87
e 62 89
e 62 93
e 62 96
e 62 97
e 62 98
e 62 100
e 62 104
e 62 108
e 62 113
e 62 115
e 62 116
e 62 120
e 62 122
e 62 123
e 62 126
e 62 127
e 62 132
e 62 134
e 62 135
e 62 137
e 62 138
e 62 143
e 62 144
e 62 145
e 62 147
e 62 150
e 63 64
e 63 65
e 63 66
e 63 69
e 63 70
e 63 71
e 63 75
e 63 76
e 63 80
e 63 82
e 63 83
e 63 85
e 63 89
e 63 91
e 63 94
e 63 95
e 63 97
e 63 99
e 63 103
e 63 104
e 63 109
e 63 114
e 63 115
e 63 117
e 63 122
e 63 123
e 63 127
e 63 129
e 63 130
e 63 133
e 63 136
e 63 137
e 63 139
e 63 141
e 63 143
e 63 144
e 63 146
e 63 147
e 64 65
e 64 66
e 64 69
e 64 71
e 64 72
e 64 74
e 64 75
e 64 76
e 64 77
e 64 78
e 64 79
e 64 83
e 64 84
e 64 87
e 64 92
e 64 97
e 64 98
e 64 100
e 64 104
e 64 105
e 64 106
e 64 107
e 64 108
e 64 110
e 64 112
e 64 113
e 64 114
e 64 123
e 64 125
e 64 129
e 64 132
e 64 137
e 64 138
e 64 140
e 64 143
e 64 147
e 64 148
e 64 149
e 64 150
e 65 68
e 65 69
e 65 71
e 65 72
e 65 73
e 65 75
e 65 80
e 65 88
e 65 89
e 65 93
e 65 100
e 65 102
e 65 103
e 65 104
e 65 109
e 65 111
e 65 112
e 65 114
e 65 115
e 65 117
e 65 119
e 65 126
e 65 130
e 65 134
e 65 136
e 65 138
e 65 139
e 65 145
e 65 148
e 65 149
e 66 68
e 66 70
e 66 72
e 66 73
e 66 75
e 66 76
e 66 78
e 66 80
e 66 81
e 66 85
e 66 86
e 66 87
e 66 89
e 66 90
e 66 91
e 66 93
e 66 96
e 66 97
e 66 98
e 66 99
e 66 100
e 66 102
e 66 104
e 66 105
e 66 106
e 66 110
e 66 114
e 66 116
e 66 119
e 66 121
e 66 124
e 66 129
e 66 135
e 66 136
e 66 137
e 66 138
e 66 139
e 66 140
e 66 141
e 66 143
e 66 144
e 66 145
e 66 150
e 67 68
e 67 70
e 67 72
e 67 76
e 67 77
e 67 83
e 67 84
e 67 85
e 67 91
e 67 92
e 67 93
e 67 95
e 67 96
e 67 101
e 67 105
e 67 106
e 67 107
e 67 109
e 67 110
e 67 112
e 67 114
e 67 115
e 67 116
e 67 119
e 67 126
e 67 127
e 67 129
e 67 130
e 67 133
e 67 135
e 67 138
e 67 140
e 67 141
e 67 143
e 67 144
e 67 147
e 67 148
e 67 149
e 68 69
e 68 71
e 68 75
e 68 77
e 68 79
e 68 83
e 68 84
e 68 85
e 68 87
e 68 89
e 68 93
e 68 95
e 68 102
e 68 103
e 68 107
e 68 108
e 68 109
e 68 110
e 68 111
e 68 112
e 68 118
e 68 119
e 68 123
e 68 125
e 68 127
e 68 128
e 68 129
e 68 137
e 68 139
e 68 142
e 69 71
e 69 72
e 69 73
e 69 75
e 69 81
e 69 91
e 69 92
e 69 93
e 69 94
e 69 97
e 69 101
e 69 117
e 69 118
e 69 119
e 69 122
e 69 125
e 69 126
e 69 128
e 69 131
e 69 133
e 69 134
e 69 136
e 69 137
e 69 138
e 69 139
e 69 140
e 69 141
e 69 143
e 69 146
e 70 72
e 70 76
e 70 78
e 70 79
e 70 81
e 70 85
e 70 86
e 70 88
e 70 89
e 70 90
e 70 92
e 70 96
e 70 98
e 70 103
e 70 105
e 70 108
e 70 110
e 70 112
e 70 114
e 70 116
e 70 117
e 70 118
e 70 120
e 70 121
e 70 124
e 70 133
e 70 135
e 70 137
e 70 138
e 70 139
e 70 140
e 70 142
e 70 145
e 70 148
e 71 76
e 71 77
e 71 84
e 71 85
e 71 86
e 71 88
e 71 96
e 71 97
e 71 98
e 71 100
e 71 101
e 71 103
e 71 106
e 71 107
e 71 109
e 71 112
e 71 114
e 71 115
e 71 116
e 71 117
e 71 120
e 71 123
e 71 125
e 71 129
e 71 130
e 71 131
e 71 132
e 71 133
e 71 137
e 71 138
e 71 139
e 71 141
e 71 142
e 71 145
e 71 147
e 72 83
e 72 88
e 72 89
e 72 93
e 72 94
e 72 95
e 72 96
e 72 97
e 72 99
e 72 101
e 72 102
e 72 103
e 72 105
e 72 106
e 72 109
e 72 111
e 72 112
e 72 115
e 72 116
e 72 118
e 72 119
e 72 121
e 72 136
e 72 139
e 72 142
e 72 144
e 72 146
e 72 147
e 73 74
e 73 78
e 73 82
e 73 88
e 73 91
e 73 93
e 73 97
e 73 98
e 73 100
e 73 101
e 73 104
e 73 105
e 73 111
e 73 113
e 73 115
e 73 118
e 73 120
e 73 122
e 73 128
e 73 134
e 73 135
e 73 136
e 73 137
e 73 142
e 73 143
e 73 144
e 73 145
e 73 150
e 74 75
e 74 77
e 74 79
e 74 80
e 74 82
e 74 87
e 74 88
e 74 90
e 74 91
e 74 95
e 74 98
e 74 101
e 74 106
e 74 107
e 74 109
e 74 111
e 74 115
e 74 119
e 74 125
e 74 128
e 74 131
e 74 136
e 74 137
e 74 141
e 74 142
e 74 143
e 74 144
e 74 147
e 74 148
e 74 149
e 74 150
e 75 90
e 75 91
e 75 93
e 75 94
e 75 96
e 75 98
e 75 101
e 75 102
e 75 104
e 75 106
e 75 111
e 75 112
e 75 113
e 75 117
e 75 122
e 75 123
e 75 124
e 75 127
e 75 129
e 75 134
e 75 136
e 75 137
e 75 139
e 75 140
e 75 142
e 75 143
e 75 144
e 75 147
e 75 149
e 76 78
e 76 80
e 76 84
e 76 85
e 76 87
e 76 89
e 76 90
e 76 94
e 76 95
e 76 96
e 76 97
e 76 98
e 76 99
e 76 102
e 76 103
e 76 106
e 76 107
e 76 108
e 76 111
e 76 114
e 76 115
e 76 116
e 76 117
e 76 119
e 76 120
e 76 121
e 76 123
e 76 127
e 76 128
e 76 131
e 76 132
e 76 134
e 76 135
e 76 138
e 76 139
e 76 143
e 76 145
e 76 146
e 76 149
e 77 83
e 77 87
e 77 89
e 77 90
e 77 94
e 77 98
e 77 99
e 77 100
e 77 101
e 77 102
e 77 103
e 77 104
e 77 109
e 77 110
e 77 115
e 77 119
e 77 122
e 77 123
e 77 126
e 77 133
e 77 134
e 77 135
e 77 136
e 77 138
e 77 142
e 77 143
e 77 145
e 77 146
e 77 147
e 77 148
e 77 149
e 78 79
e 78 80
e 78 82
e 78 86
e 78 89
e 78 90
e 78 91
e 78 93
e 78 94
e 78 100
e 78 101
e 78 102
e 78 105
e 78 106
e 78 108
e 78 109
e 78 114
e 78 117
e 78 118
e 78 119
e 78 123
e 78 125
e 78 126
e 78 129
e 78 134
e 78 135
e 78 136
e 78 137
e 78 138
e 78 139
e 78 141
e 78 142
e 78 146
e 78 148
e 78 149
e 79 80
e 79 81
e 79 84
e 79 89
e 79 91
e 79 92
e 79 94
e 79 96
e 79 97
e 79 99
e 79 100
e 79 104
e 79 106
e 79 109
e 79 113
e 79 115
e 79 119
e 79 121
e 79 126
e 79 127
e 79 128
e 79 129
e 79 130
e 79 133
e 79 134
e 79 135
e 79 138
e 79 144
e 79 146
e 79 147
e 80 81
e 80 82
e 80 86
e 80 87
e 80 88
e 80 91
e 80 92
e 80 94
e 80 97
e 80 98
e 80 99
e 80 100
e 80 101
e 80 102
e 80 105
e 80 108
e 80 110
e 80 111
e 80 112
e 80 114
e 80 122
e 80 123
e 80 125
e 80 127
e 80 128
e 80 131
e 80 132
e 80 135
e 80 137
e 80 138
e 80 142
e 80 143
e 80 144
e 80 145
e 80 150
e 81 84
e 81 85
e 81 89
e 81 90
e 81 92
e 81 94
e 81 95
e 81 98
e 81 101
e 81 102
e 81 104
e 81 110
e 81 111
e 81 112
e 81 116
e 81 125
e 81 126
e 81 128
e 81 133
e 81 134
e 81 136
e 81 138
e 81 143
e 81 145
e 81 148
e 82 85
e 82 86
e 82 87
e 82 90
e 82 97
e 82 99
e 82 101
e 82 104
e 82 105
e 82 107
e 82 113
e 82 118
e 82 119
e 82 123
e 82 124
e 82 127
e 82 128
e 82 130
e 82 131
e 82 135
e 82 136
e 82 138
e 82 139
e 82 140
e 82 141
e 82 142
e 82 145
e 82 149
e 82 150
e 83 87
e 83 88
e 83 89
e 83 90
e 83 93
e 83 95
e 83 97
e 83 107
e 83 112
e 83 113
e 83 119
e 83 123
e 83 124
e 83 127
e 83 129
e 83 130
e 83 131
e 83 132
e 83 133
e 83 142
e 83 144
e 83 146
e 83 147
e 83 149
e 84 86
e 84 88
e 84 90
e 84 92
e 84 93
e 84 96
e 84 97
e 84 98
e 84 99
e 84 107
e 84 108
e 84 110
e 84 113
e 84 115
e 84 117
e 84 118
e 84 121
e 84 124
e 84 127
e 84 128
e 84 129
e 84 130
e 84 134
e 84 135
e 84 140
e 84 141
e 84 143
e 84 144
e 84 146
e 84 150
e 85 86
e 85 88
e 85 90
e 85 92
e 85 96
e 85 99
e 85 102
e 85 105
e 85 109
e 85 110
e 85 113
e 85 116
e 85 119
e 85 121
e 85 123
e 85 124
e 85 128
e 85 131
e 85 133
e 85 134
e 85 135
e 85 136
e 85 140
e 85 141
e 85 142
e 85 145
e 85 149
e 85 150
e 86 88
e 86 90
e 86 91
e 86 93
e 86 96
e 86 98
e 86 99
e 86 102
e 86 108
e 86 115
e 86 116
e 86 127
e 86 128
e 86 129
e 86 130
e 86 135
e 86 141
e 86 143
e 86 145
e 86 148
e 87 88
e 87 91
e 87 96
e 87 98
e 87 99
e 87 101
e 87 108
e 87 109
e 87 110
e 87 113
e 87 115
e 87 116
e 87 118
e 87 119
e 87 127
e 87 129
e 87 131
e 87 132
e 87 135
e 87 137
e 87 141
e 87 142
e 87 145
e 87 149
e 87 150
e 88 91
e 88 93
e 88 101
e 88 102
e 88 103
e 88 108
e 88 109
e 88 110
e 88 111
e 88 112
e 88 114
e 88 116
e 88 117
e 88 118
e 88 126
e 88 129
e 88 132
e 88 134
e 88 136
e 88 141
e 88 142
e 88 143
e 88 144
e 89 92
e 89 93
e 89 95
e 89 97
e 89 103
e 89 104
e 89 105
e 89 106
e 89 110
e 89 114
e 89 115
e 89 119
e 89 120
e 89 122
e 89 123
e 89 124
e 89 128
e 89 132
e 89 135
e 89 136
e 89 138
e 89 140
e 89 141
e 89 143
e 89 145
e 89 148
e 90 92
e 90 95
e 90 96
e 90 98
e 90 103
e 90 108
e 90 109
e 90 110
e 90 113
e 90 117
e 90 120
e 90 123
e 90 125
e 90 126
e 90 129
e 90 130
e 90 133
e 90 134
e 90 136
e 90 137
e 90 139
e 90 140
e 90 141
e 90 145
e 90 146
e 90 147
e 90 148
e 90 150
e 91 94
e 91 96
e 91 97
e 91 99
e 91 102
e 91 103
e 91 104
e 91 105
e 91 106
e 91 107
e 91 109
e 91 110
e 91 112
e 91 116
e 91 117
e 91 120
e 91 123
e 91 126
e 91 128
e 91 129
e 91 130
e 91 132
e 91 133
e 91 136
e 91 139
e 91 140
e 91 142
e 91 144
e 91 145
e 91 147
e 92 93
e 92 95
e 92 98
e 92 102
e 92 112
e 92 115
e 92 116
e 92 117
e 92 119
e 92 121
e 92 124
e 92 127
e 92 131
e 92 133
e 92 134
e 92 137
e 92 138
e 92 140
e 92 142
e 92 144
e 92 145
e 93 94
e 93 96
e 93 97
e 93 98
e 93 99
e 93 100
e 93 102
e 93 103
e 93 109
e 93 111
e 93 114
e 93 116
e 93 117
e 93 121
e 93 123
e 93 124
e 93 125
e 93 127
e 93 131
e 93 133
e 93 136
e 93 137
e 93 139
e 93 140
e 93 141
e 93 144
e 93 145
e 93 146
e 93 147
e 93 148
e 94 95
e 94 96
e 94 97
e 94 98
e 94 103
e 94 104
e 94 107
e 94 110
e 94 114
e 94 116
e 94 117
e 94 118
e 94 120
e 94 123
e 94 125
e 94 127
e 94 128
e 94 129
e 94 132
e 94 133
e 94 137
e 94 145
e 94 147
e 94 150
e 95 96
e 95 99
e 95 100
e 95 104
e 95 107
e 95 108
e 95 109
e 95 111
e 95 114
e 95 117
e 95 118
e 95 121
e 95 122
e 95 123
e 95 124
e 95 127
e 95 128
e 95 129
e 95 130
e 95 131
e 95 133
e 95 135
e 95 136
e 95 139
e 95 140
e 95 143
e 95 144
e 95 148
e 96 97
e 96 101
e 96 108
e 96 109
e 96 111
e 96 116
e 96 129
e 96 138
e 96 142
e 96 143
e 96 148
e 96 149
e 96 150
e 97 98
e 97 100
e 97 103
e 97 105
e 97 107
e 97 108
e 97 110
e 97 112
e 97 113
e 97 114
e 97 118
e 97 119
e 97 121
e 97 123
e 97 127
e 97 128
e 97 131
e 97 132
e 97 133
e 97 134
e 97 139
e 97 140
e 97 144
e 97 145
e 97 146
e 97 150
e 98 101
e 98 110
e 98 111
e 98 113
e 98 114
e 98 118
e 98 121
e 98 122
e 98 123
e 98 125
e 98 126
e 98 130
e 98 131
e 98 134
e 98 139
e 98 140
e 98 142
e 98 149
e 99 100
e 99 102
e 99 105
e 99 107
e 99 108
e 99 109
e 99 110
e 99 111
e 99 112
e 99 116
e 99 121
e 99 123
e 99 130
e 99 133
e 99 134
e 99 137
e 99 138
e 99 140
e 99 141
e 99 143
e 99 146
e 99 148
e 100 101
e 100 105
e 100 107
e 100 112
e 100 113
e 100 114
e 100 116
e 100 119
e 100 122
e 100 123
e 100 125
e 100 126
e 100 128
e 100 129
e 100 130
e 100 131
e 100 132
e 100 133
e 100 135
e 100 136
e 100 138
e 100 139
e 100 147
e 101 103
e 101 106
e 101 107
e 101 109
e 101 110
e 101 111
e 101 113
e 101 114
e 101 117
e 101 118
e 101 122
e 101 123
e 101 125
e 101 126
e 101 130
e 101 131
e 101 132
e 101 134
e 101 137
e 101 140
e 101 141
e 101 147
e 102 105
e 102 107
e 102 109
e 102 111
e 102 119
e 102 125
e 102 129
e 102 134
e 102 135
e 102 139
e 102 140
e 102 143
e 102 145
e 102 148
e 103 107
e 103 108
e 103 110
e 103 118
e 103 124
e 103 125
e 103 126
e 103 130
e 103 133
e 103 136
e 103 137
e 103 141
e 103 144
e 103 148
e 104 106
e 104 113
e 104 114
e 104 116
e 104 117
e 104 118
e 104 119
e 104 121
e 104 123
e 104 125
e 104 135
e 104 136
e 104 137
e 104 138
e 104 142
e 104 146
e 104 147
e 104 149
e 105 107
e 105 109
e 105 111
e 105 114
e 105 126
e 105 127
e 105 130
e 105 131
e 105 133
e 105 136
e 105 137
e 105 142
e 105 143
e 105 146
e 105 147
e 105 148
e 105 149
e 105 150
e 106 107
e 106 108
e 106 110
e 106 114
e 106 116
e 106 120
e 106 123
e 106 125
e 106 132
e 106 133
e 106 139
e 106 141
e 106 144
e 106 145
e 106 148
e 106 149
e 106 150
e 107 110
e 107 112
e 107 114
e 107 115
e 107 117
e 107 119
e 107 125
e 107 130
e 107 134
e 107 135
e 107 136
e 107 141
e 107 142
e 107 144
e 107 145
e 107 146
e 107 148
e 107 150
e 108 109
e 108 116
e 108 119
e 108 120
e 108 121
e 108 124
e 108 125
e 108 128
e 108 129
e 108 130
e 108 131
e 108 134
e 108 137
e 108 138
e 108 139
e 108 141
e 108 142
e 108 143
e 108 147
e 108 149
e 108 150
e 109 114
e 109 117
e 109 129
e 109 131
e 109 133
e 109 135
e 109 138
e 109 140
e 109 142
e 109 145
e 110 112
e 110 113
e 110 117
e 110 118
e 110 120
e 110 122
e 110 128
e 110 129
e 110 131
e 110 132
e 110 135
e 110 138
e 110 139
e 110 140
e 110 143
e 110 144
e 110 145
e 110 147
e 110 148
e 111 113
e 111 115
e 111 117
e 111 119
e 111 121
e 111 123
e 111 129
e 111 131
e 111 139
e 111 140
e 111 143
e 111 144
e 111 147
e 111 148
e 112 115
e 112 117
e 112 119
e 112 121
e 112 126
e 112 127
e 112 128
e 112 130
e 112 135
e 112 138
e 112 142
e 112 148
e 113 115
e 113 121
e 113 122
e 113 123
e 113 124
e 113 126
e 113 128
e 113 134
e 113 136
e 113 137
e 113 138
e 113 139
e 113 140
e 113 142
e 113 147
e 113 150
e 114 117
e 114 118
e 114 119
e 114 126
e 114 127
e 114 131
e 114 133
e 114 142
e 114 143
e 114 144
e 114 147
e 114 149
e 114 150
e 115 119
e 115 120
e 115 123
e 115 125
e 115 128
e 115 130
e 115 135
e 115 136
e 115 137
e 115 138
e 115 140
e 115 142
e 115 143
e 115 145
e 115 146
e 115 148
e 116 117
e 116 118
e 116 119
e 116 121
e 116 122
e 116 125
e 116 127
e 116 136
e 116 138
e 116 140
e 116 142
e 116 144
e 116 145
e 116 147
e 116 149
e 116 150
e 117 122
e 117 125
e 117 127
e 117 129
e 117 132
e 117 136
e 117 139
e 117 142
e 117 143
e 117 145
e 117 147
e 117 148
e 117 149
e 117 150
e 118 124
e 118 125
e 118 127
e 118 128
e 118 133
e 118 134
e 118 136
e 118 138
e 118 139
e 118 140
e 118 141
e 118 145
e 118 146
e 118 148
e 118 149
e 119 122
e 119 123
e 119 126
e 119 128
e 119 129
e 119 132
e 119 133
e 119 138
e 119 142
e 119 146
e 120 122
e 120 123
e 120 124
e 120 125
e 120 126
e 120 127
e 120 128
e 120 129
e 120 134
e 120 137
e 120 138
e 120 139
e 120 140
e 120 143
e 120 144
e 120 147
e 120 149
e 121 122
e 121 127
e 121 131
e 121 132
e 121 133
e 121 143
e 121 145
e 121 147
e 121 148
e 122 125
e 122 126
e 122 129
e 122 131
e 122 137
e 122 141
e 122 142
e 122 143
e 122 145
e 123 126
e 123 127
e 123 130
e 123 131
e 123 133
e 123 135
e 123 136
e 123 137
e 123 138
e 123 140
e 123 141
e 123 144
e 123 147
e 123 148
e 123 149
e 124 125
e 124 129
e 124 131
e 124 139
e 124 140
e 124 142
e 124 143
e 124 145
e 124 147
e 124 149
e 124 150
e 125 127
e 125 128
e 125 131
e 125 135
e 125 136
e 125 137
e 125 139
e 125 140
e 125 147
e 125 148
e 126 129
e 126 131
e 126 132
e 126 134
e 126 135
e 126 136
e 126 137
e 126 138
e 126 141
e 126 142
e 126 143
e 126 144
e 126 145
e 126 146
e 127 131
e 127 134
e 127 137
e 127 140
e 127 141
e 127 143
e 127 144
e 127 147
e 127 148
e 127 149
e 128 132
e 128 136
e 128 140
e 128 141
e 128 143
e 128 144
e 128 145
e 128 149
e 128 150
e 129 130
e 129 131
e 129 133
e 129 134
e 129 135
e 129 136
e 129 138
e 130 131
e 130 140
e 130 142
e 130 144
e 130 145
e 130 146
e 130 147
e 131 133
e 131 134
e 131 135
e 131 138
e 131 139
e 131 140
e 131 145
e 131 146
e 131 149
e 132 133
e 132 135
e 132 136
e 132 139
e 132 142
e 132 143
e 132 147
e 132 150
e 133 135
e 133 137
e 133 139
e 133 141
e 133 143
e 133 144
e 133 145
e 133 148
e 133 149
e 134 136
e 134 137
e 134 145
e 135 136
e 135 137
e 135 138
e 135 140
e 135 143
e 135 145
e 135 150
e 136 138
e 136 139
e 136 142
e 136 144
e 136 148
e 136 149
e 137 138
e 137 141
e 137 143
e 137 147
e 138 140
e 138 142
e 138 145
e 138 146
e 138 150
e 139 141
e 139 148
e 139 150
e 140 141
e 140 147
e 140 148
e 141 142
e 141 148
e 142 144
e 142 146
e 142 147
e 142 148
e 142 150
e 143 147
e 143 149
e 143 150
e 144 145
e 144 148
e 144 150
e 145 146
e 145 150
e 146 149
e 147 148
e 149 150
